 CuZnH               
1.0000
  6.298900  0.000000  0.000000
  0.000000 10.286100  0.000000
  0.000000  0.000000 20.938700
 Cu Zn H  
          36           3           1
Direct
  0.166670  0.000000  0.046296
  0.833330  0.000000  0.117196
  0.500000  0.125000  0.081746
  0.166663  0.123956  0.149814
  0.166670  0.250000  0.046296
  0.833330  0.250000  0.117196
  0.500000  0.375000  0.081746
  0.166651  0.376317  0.149796
  0.166670  0.500000  0.046296
  0.833330  0.500000  0.117196
  0.500000  0.625000  0.081746
  0.163911  0.625927  0.150859
  0.166670  0.750000  0.046296
  0.833330  0.750000  0.117196
  0.500000  0.875000  0.081746
  0.163956  0.874373  0.150850
  0.839291  0.998037  0.326943
  0.176817  0.996999  0.259066
  0.502378  0.999859  0.187024
  0.510217  0.121031  0.292982
  0.841357  0.125752  0.222336
  0.841561  0.250442  0.329004
  0.176433  0.250337  0.253865
  0.505314  0.250243  0.187465
  0.509968  0.379820  0.292880
  0.841309  0.374788  0.222312
  0.838887  0.502761  0.326915
  0.176525  0.503750  0.259047
  0.502256  0.500690  0.186990
  0.506121  0.626451  0.294381
  0.839891  0.625392  0.223176
  0.834596  0.750408  0.324871
  0.174517  0.750380  0.259516
  0.502028  0.750305  0.187704
  0.506379  0.874357  0.294407
  0.840112  0.875257  0.223186
  0.168077  0.382786  0.364246
  0.168484  0.118315  0.364187
  0.512394  0.250995  0.395483
  0.049079  0.726887  0.431163
