# Structure definition for H adsorption on CuZn surface
# 36 Cu, 3 Zn, 1 H = 40 atoms
# Substrate atoms fixed (FFF), H atom movable
#

Cu Zn 
1.0
        6.2989001274         0.0000000000         0.0000000000
        0.0000000000        10.2861003876         0.0000000000
        0.0000000000         0.0000000000        20.9386997223
   Cu   Zn  H
   36    3  0
Direct
     0.166670009         0.000000000         0.046296235  F  F  F
     0.833330035         0.000000000         0.117196240  F  F  F
     0.500000000         0.125000000         0.081746235  F  F  F
     0.166662663         0.123955697         0.149813563  F  F  F
     0.166670009         0.250000000         0.046296235  F  F  F
     0.833330035         0.250000000         0.117196240  F  F  F
     0.500000000         0.375000000         0.081746235  F  F  F
     0.166650534         0.376316965         0.149795666  F  F  F
     0.166670009         0.500000000         0.046296235  F  F  F
     0.833330035         0.500000000         0.117196240  F  F  F
     0.500000000         0.625000000         0.081746235  F  F  F
     0.163911164         0.625926554         0.150858626  F  F  F
     0.166670009         0.750000000         0.046296235  F  F  F
     0.833330035         0.750000000         0.117196240  F  F  F
     0.500000000         0.875000000         0.081746235  F  F  F
     0.163955629         0.874373436         0.150850281  F  F  F
     0.839291096         0.998037398         0.326942533  F  F  F
     0.176817223         0.996998549         0.259066224  F  F  F
     0.502378047         0.999859095         0.187024325  F  F  F
     0.510216713         0.121030688         0.292982191  F  F  F
     0.841356814         0.125752091         0.222335920  F  F  F
     0.841561079         0.250442028         0.329003960  F  F  F
     0.176433310         0.250337481         0.253865212  F  F  F
     0.505314112         0.250243008         0.187465176  F  F  F
     0.509967744         0.379819751         0.292880237  F  F  F
     0.841308534         0.374787748         0.222311571  F  F  F
     0.838887453         0.502760947         0.326914757  F  F  F
     0.176524982         0.503749728         0.259046733  F  F  F
     0.502255857         0.500690043         0.186989814  F  F  F
     0.506121039         0.626451313         0.294380546  F  F  F
     0.839891255         0.625392079         0.223176092  F  F  F
     0.834595621         0.750407517         0.324871331  F  F  F
     0.174516782         0.750379622         0.259516299  F  F  F
     0.502028465         0.750305414         0.187703893  F  F  F
     0.506378651         0.874356925         0.294406921  F  F  F
     0.840111673         0.875256717         0.223186105  F  F  F
     0.168076679         0.382785559         0.364245921  F  F  F
     0.168484196         0.118315071         0.364186734  F  F  F
     0.512393713         0.250994623         0.395483315  F  F  F
