 pl-N-Ag4            
1.0000
 14.800000  0.000000  0.000000
 -7.400000 12.817176  0.000000
  0.000000  0.000000 20.000000
 C  N  Ag 
          70           1           4
Selective Dynamics
Direct
  0.998470  0.998688  0.200000    F    F    F
  0.164566  0.996935  0.200000    F    F    F
  0.332735  0.998648  0.200000    F    F    F
  0.499650  0.002534  0.200000    F    F    F
  0.666312  0.002142  0.200000    F    F    F
  0.832706  0.001100  0.200000    F    F    F
  0.052776  0.109188  0.200000    F    F    F
  0.218197  0.106917  0.200000    F    F    F
  0.386988  0.109776  0.200000    F    F    F
  0.554029  0.115207  0.200000    F    F    F
  0.720954  0.113271  0.200000    F    F    F
  0.887676  0.112056  0.200000    F    F    F
  0.998567  0.166373  0.200000    F    F    F
  0.162777  0.162723  0.200000    F    F    F
  0.328415  0.161071  0.200000    F    F    F
  0.497962  0.172181  0.200000    F    F    F
  0.664994  0.169198  0.200000    F    F    F
  0.832099  0.167916  0.200000    F    F    F
  0.054623  0.277415  0.200000    F    F    F
  0.217173  0.273016  0.200000    F    F    F
  0.380059  0.269721  0.200000    F    F    F
  0.551669  0.286802  0.200000    F    F    F
  0.719605  0.280328  0.200000    F    F    F
  0.887829  0.278975  0.200000    F    F    F
  0.999552  0.333373  0.200000    F    F    F
  0.165859  0.331598  0.200000    F    F    F
  0.325968  0.324540  0.200000    F    F    F
  0.487807  0.339608  0.200000    F    F    F
  0.663304  0.336114  0.200000    F    F    F
  0.831939  0.334596  0.200000    F    F    F
  0.058238  0.444172  0.200000    F    F    F
  0.228395  0.442572  0.200000    F    F    F
  0.396474  0.432253  0.200000    F    F    F
  0.721881  0.447077  0.200000    F    F    F
  0.889870  0.445335  0.200000    F    F    F
  0.001924  0.499739  0.200000    F    F    F
  0.171048  0.498493  0.200000    F    F    F
  0.343285  0.496295  0.200000    F    F    F
  0.673997  0.507155  0.200000    F    F    F
  0.834613  0.501519  0.200000    F    F    F
  0.057448  0.610620  0.200000    F    F    F
  0.224773  0.609407  0.200000    F    F    F
  0.391952  0.607983  0.200000    F    F    F
  0.562844  0.619544  0.200000    F    F    F
  0.724144  0.612599  0.200000    F    F    F
  0.890467  0.611924  0.200000    F    F    F
  0.001747  0.666378  0.200000    F    F    F
  0.168644  0.665227  0.200000    F    F    F
  0.335918  0.664043  0.200000    F    F    F
  0.502853  0.667212  0.200000    F    F    F
  0.668187  0.669240  0.200000    F    F    F
  0.835539  0.668036  0.200000    F    F    F
  0.056321  0.776907  0.200000    F    F    F
  0.223267  0.776331  0.200000    F    F    F
  0.390139  0.776387  0.200000    F    F    F
  0.557251  0.779707  0.200000    F    F    F
  0.723771  0.780534  0.200000    F    F    F
  0.889667  0.778356  0.200000    F    F    F
  0.000061  0.832351  0.200000    F    F    F
  0.167310  0.831815  0.200000    F    F    F
  0.334370  0.832082  0.200000    F    F    F
  0.500920  0.834626  0.200000    F    F    F
  0.667676  0.835424  0.200000    F    F    F
  0.833992  0.834406  0.200000    F    F    F
  0.054095  0.942769  0.200000    F    F    F
  0.221687  0.942667  0.200000    F    F    F
  0.388798  0.943746  0.200000    F    F    F
  0.555375  0.946544  0.200000    F    F    F
  0.722170  0.946601  0.200000    F    F    F
  0.888089  0.944796  0.200000    F    F    F
  0.500508  0.443453  0.200000    F    F    F
  0.514306  0.520409  0.460690    T    T    T
  0.501178  0.449578  0.537491    T    T    T
  0.484562  0.548382  0.531742    T    T    T
  0.433756  0.455529  0.497374    T    T    T
