# Structure definition for Ag4 cluster on C-N surface
# Substrate: 70 C + 1 N (FIXED)
# Cluster: 4 Ag atoms (MOVABLE)
# Total: 75 atoms
# Hexagonal lattice: 14.8 x 14.8 x 20 Angstrom

CONTCAR                                 
   1.00000000000000     
    14.8013000487999999    0.0000000000000000    0.0000000000000000
    -7.4006500244000000   12.8183018512999993    0.0000000000000000
     0.0000000000000000    0.0000000000000000   20.0000000000000000
   C    N 
    70     1
Direct
  0.9984700987173225 -0.0013122833500785  0.2000000029999995 F F F 
  0.1645655267558314 -0.0030650412663971  0.2000000029999995 F F F 
  0.3327351437144443 -0.0013518429863029  0.2000000029999995 F F F 
  0.4996495217978054  0.0025335274145723  0.2000000029999995 F F F 
  0.6663118908317058  0.0021417405899935  0.2000000029999995 F F F 
  0.8327062459463093  0.0010998579387765  0.2000000029999995 F F F 
  0.0527760907890861  0.1091882773250187  0.2000000029999995 F F F 
  0.2181971147271270  0.1069168914744224  0.2000000029999995 F F F 
  0.3869884684081750  0.1097760894427340  0.2000000029999995 F F F 
  0.5540286163047030  0.1152069407518080  0.2000000029999995 F F F 
  0.7209538967259794  0.1132712094180884  0.2000000029999995 F F F 
  0.8876763515175136  0.1120560252878283  0.2000000029999995 F F F 
 -0.0014327015231778  0.1663727918590144  0.2000000029999995 F F F 
  0.1627773644383516  0.1627227214089516  0.2000000029999995 F F F 
  0.3284150154460814  0.1610707078386766  0.2000000029999995 F F F 
  0.4979623327259340  0.1721805667647699  0.2000000029999995 F F F 
  0.6649935394955929  0.1691981938220625  0.2000000029999995 F F F 
  0.8320992267707104  0.1679156246352884  0.2000000029999995 F F F 
  0.0546229640084440  0.2774146583441749  0.2000000029999995 F F F 
  0.2171726045169458  0.2730159941203414  0.2000000029999995 F F F 
  0.3800592123338106  0.2697206932765572  0.2000000029999995 F F F 
  0.5516689761564727  0.2868018664270653  0.2000000029999995 F F F 
  0.7196053461364058  0.2803276650201751  0.2000000029999995 F F F 
  0.8878290979603546  0.2789750095972781  0.2000000029999995 F F F 
 -0.0004481710584198  0.3333725425927553  0.2000000029999995 F F F 
  0.1658594202438209  0.3315977439447143  0.2000000029999995 F F F 
  0.3259676912998644  0.3245399786332579  0.2000000029999995 F F F 
  0.4878065991594808  0.3396075560878420  0.2000000029999995 F F F 
  0.6633041663327507  0.3361139808613030  0.2000000029999995 F F F 
  0.8319387282720150  0.3345957226164347  0.2000000029999995 F F F 
  0.0582379780434581  0.4441718433747660  0.2000000029999995 F F F 
  0.2283949946040728  0.4425722292674728  0.2000000029999995 F F F 
  0.3964742495311909  0.4322534277549201  0.2000000029999995 F F F 
  0.7218807800706153  0.4470773969428882  0.2000000029999995 F F F 
  0.8898704593303923  0.4453349982985118  0.2000000029999995 F F F 
  0.0019243353474639  0.4997386963088687  0.2000000029999995 F F F 
  0.1710482045181486  0.4984931434535734  0.2000000029999995 F F F 
  0.3432846890595808  0.4962952051067666  0.2000000029999995 F F F 
  0.6739973585907341  0.5071550215338501  0.2000000029999995 F F F 
  0.8346125716990971  0.5015190747564805  0.2000000029999995 F F F 
  0.0574481805115243  0.6106202004670519  0.2000000029999995 F F F 
  0.2247728958708659  0.6094068361427875  0.2000000029999995 F F F 
  0.3919516318507384  0.6079832424990957  0.2000000029999995 F F F 
  0.5628442349007586  0.6195436851587047  0.2000000029999995 F F F 
  0.7241436503548133  0.6125992833829764  0.2000000029999995 F F F 
  0.8904673145680866  0.6119237552613612  0.2000000029999995 F F F 
  0.0017468703024597  0.6663780121943833  0.2000000029999995 F F F 
  0.1686439927707090  0.6652271638279703  0.2000000029999995 F F F 
  0.3359177346573357  0.6640429915955731  0.2000000029999995 F F F 
  0.5028534300036303  0.6672116352209729  0.2000000029999995 F F F 
  0.6681872425239433  0.6692402861562017  0.2000000029999995 F F F 
  0.8355387202708092  0.6680364329095910  0.2000000029999995 F F F 
  0.0563208626794443  0.7769070533837704  0.2000000029999995 F F F 
  0.2232669403617457  0.7763306165510019  0.2000000029999995 F F F 
  0.3901388632435394  0.7763868483543016  0.2000000029999995 F F F 
  0.5572513284139835  0.7797065371763787  0.2000000029999995 F F F 
  0.7237714920801771  0.7805335747517593  0.2000000029999995 F F F 
  0.8896670430792950  0.7783563963282266  0.2000000029999995 F F F 
  0.0000608505497733  0.8323507366586783  0.2000000029999995 F F F 
  0.1673095264088393  0.8318154066983433  0.2000000029999995 F F F 
  0.3343696691399701  0.8320820449757798  0.2000000029999995 F F F 
  0.5009202549671453  0.8346260007564139  0.2000000029999995 F F F 
  0.6676758667847383  0.8354238898705245  0.2000000029999995 F F F 
  0.8339923413698441  0.8344059663558108  0.2000000029999995 F F F 
  0.0540948030722987  0.9427689636094901  0.2000000029999995 F F F 
  0.2216867976472930  0.9426665843550371  0.2000000029999995 F F F 
  0.3887984638304409  0.9437460343151255  0.2000000029999995 F F F 
  0.5553749688828322  0.9465435742446163  0.2000000029999995 F F F 
  0.7221703856991868  0.9466011663999582  0.2000000029999995 F F F 
  0.8880894323279740  0.9447958875070466  0.2000000029999995 F F F 
  0.5005082601296086  0.4434525112017932  0.2000000029999995 F F F 








































































